c User generated cnf file
p cnf 15 35
8 9 -1 0 
5 2 -11 0 
-1 10 12 0 
9 -11 2 0 
-2 8 9 0 
-4 1 13 0 
2 -15 13 0 
9 8 -11 0 
7 13 -15 0 
-8 1 15 0 
15 -5 12 0 
-12 6 4 0 
-7 14 4 0 
3 13 -4 0 
9 1 -6 0 
-5 13 12 0 
-11 8 6 0 
-7 14 13 0 
10 -10 10 0 
-8 9 12 0 
-8 6 7 0 
-15 14 1 0 
-12 11 12 0 
3 -3 1 0 
10 -4 3 0 
-10 15 12 0 
3 11 -6 0 
-8 15 8 0 
-14 5 7 0 
13 -9 3 0 
10 -4 10 0 
2 1 -13 0 
12 5 -15 0 
3 -9 14 0 
8 -5 2 0 
